1 93 5 6 16 17 37 59 60 61 84 85 86 87 91 92 94 95 96 97 98 99 100
2 9 33 34 35 51 65 71 78 81
3 8 7 18 45 46 48 82 83
4 56 4 21 22 23 25 39 41 55 67 72 73 74 75
5 31 1 10 52 62 69 70 88
6 53 2 13 26 27 28 40 58 89 101
7 32 20 30 63 66 90
8 68 3 12 24 29 50 54 76 77 79 80
9 14 15 38 42 43 44 57
10 19 11 36 47 49 64
